Hf4 O8                                  
   1.00000000000000     
     0.0000000000000000    0.0000000000000000   -5.1512128646936395
     4.9468019511996033    0.0000000000000000    0.0000000000000003
    -0.0000000000000008   -4.9687967481375175   -0.0000000000000003
  Hf              O             
     4     8
Direct
     0.9663295973701157    0.2691044795161127    0.7550033454875108
     0.5336704026298843    0.2691044795161127    0.2550033454875106
     0.4663295973701160    0.7308955204838875    0.7550033454875108
     0.0336704026298841    0.7308955204838875    0.2550033454875106
     0.6271421469289976    0.0778091323800485    0.6259328944335404
     0.8728578530710024    0.0778091323800485    0.1259328944335404
     0.2605556934014805    0.4553778102661306    0.5060637600789352
     0.2394443065985267    0.4553778102661306    0.0060637600789421
     0.7394443065985270    0.5446221897338696    0.0060637600789421
     0.7605556934014730    0.5446221897338696    0.5060637600789352
     0.1271421469289979    0.9221908676199516    0.6259328944335404
     0.3728578530710021    0.9221908676199516    0.1259328944335404
 
  0.00000000E+00  0.00000000E+00  0.00000000E+00
  0.00000000E+00  0.00000000E+00  0.00000000E+00
  0.00000000E+00  0.00000000E+00  0.00000000E+00
  0.00000000E+00  0.00000000E+00  0.00000000E+00
  0.00000000E+00  0.00000000E+00  0.00000000E+00
  0.00000000E+00  0.00000000E+00  0.00000000E+00
  0.00000000E+00  0.00000000E+00  0.00000000E+00
  0.00000000E+00  0.00000000E+00  0.00000000E+00
  0.00000000E+00  0.00000000E+00  0.00000000E+00
  0.00000000E+00  0.00000000E+00  0.00000000E+00
  0.00000000E+00  0.00000000E+00  0.00000000E+00
  0.00000000E+00  0.00000000E+00  0.00000000E+00
