HfO2 polar amplitude lambda=0.00 (x=0.50 mirror fraction)
   1.00000000000000
      4.9968800488597669    0.0000000121058044    0.0000001445341506
      0.0000000094452654    5.0188070423923037    0.0000001708411132
      0.0000001208533371    0.0000002046344393    5.2030025292893249
  Hf  O
  4  8
Direct
    0.2679203943091855  0.6907730673316708  0.0333282209463748
    0.2679204399210101  0.1907730673316708  0.4666717477798907
    0.7320796033559180  0.6907730673316708  0.5333281589349601
    0.7320795656368406  0.1907730673316708  0.9666716962000371
    0.0722524196573279  0.6907730673316708  0.3681264133132088
    0.0722522449186821  0.1907730673316708  0.1318740485784899
    0.4593121863729002  0.4407730814616297  0.7499999014122996
    0.4593121863729002  0.9407730532017119  0.7499999014122996
    0.5406878149951635  0.9407730825042916  0.2499999261986516
    0.5406878149951635  0.4407730521590500  0.2499999261986516
    0.9277476681005912  0.6907730673316708  0.8681262096104037
    0.9277476613643174  0.1907730673316708  0.6318738494147322
