HfO2 polar amplitude lambda=0.60 (x=0.20 mirror fraction)
   1.00000000000000
      4.9968800488597669    0.0000000121058044    0.0000001445341506
      0.0000000094452654    5.0188070423923037    0.0000001708411132
      0.0000001208533371    0.0000002046344393    5.2030025292893249
  Hf  O
  4  8
Direct
    0.2679203943091855  0.7309247362133022  0.0333282209463748
    0.2679204399210101  0.2309247216812535  0.4666717477798907
    0.7320796033559180  0.7309247322707091  0.5333281589349601
    0.7320795656368406  0.2309247251683583  0.9666716962000371
    0.0722524196573279  0.6486723424144701  0.3681264133132088
    0.0722522449186821  0.1486722734284251  0.1318740485784899
    0.4593122187809347  0.4815306584695491  0.7410744019503133
    0.4593121539648656  0.9815306302096312  0.7589254008742858
    0.5406878154607428  0.9815306594395525  0.2589254264288155
    0.5406878145295841  0.4815306290943110  0.2410744259684877
    0.9277476681005912  0.6486723026698437  0.8681262096104037
    0.9277476613643174  0.1486723121326151  0.6318738494147322
