HfO2 polar amplitude lambda=0.40 (x=0.30 mirror fraction)
   1.00000000000000
      4.9968800488597669    0.0000000121058044    0.0000001445341506
      0.0000000094452654    5.0188070423923037    0.0000001708411132
      0.0000001208533371    0.0000002046344393    5.2030025292893249
  Hf  O
  4  8
Direct
    0.2679203943091855  0.7175408465860917  0.0333282209463748
    0.2679204399210101  0.2175408368980593  0.4666717477798907
    0.7320796033559180  0.7175408439576964  0.5333281589349601
    0.7320795656368406  0.2175408392227958  0.9666716962000371
    0.0722524196573279  0.6627059173868703  0.3681264133132088
    0.0722522449186821  0.1627058713961737  0.1318740485784899
    0.4593122079782565  0.4679447994669093  0.7440495684376420
    0.4593121647675438  0.9679447712069914  0.7559502343869571
    0.5406878153055497  0.9679448004611322  0.2559502596854275
    0.5406878146847773  0.4679447701158906  0.2440495927118756
    0.9277476681005912  0.6627058908904527  0.8681262096104037
    0.9277476613643174  0.1627058971989670  0.6318738494147322
