HfO2 polar amplitude lambda=1.00 (x=0.00 mirror fraction)
   1.00000000000000
      4.9968800488597669    0.0000000121058044    0.0000001445341506
      0.0000000094452654    5.0188070423923037    0.0000001708411132
      0.0000001208533371    0.0000002046344393    5.2030025292893249
  Hf  O
  4  8
Direct
    0.2679203943091855  0.7576925154677232  0.0333282209463748
    0.2679204399210101  0.2576924912476420  0.4666717477798907
    0.7320796033559180  0.7576925088967346  0.5333281589349601
    0.7320795656368406  0.2576924970594833  0.9666716962000371
    0.0722524196573279  0.6206051924696698  0.3681264133132088
    0.0722522449186821  0.1206050774929280  0.1318740485784899
    0.4593122403862910  0.5087023764748286  0.7351240689756557
    0.4593121323595093  0.0087023482149107  0.7648757338489434
    0.5406878157711290  0.0087023773963932  0.2648757599155914
    0.5406878142191980  0.5087023470511516  0.2351240924817117
    0.9277476681005912  0.6206051262286256  0.8681262096104037
    0.9277476613643174  0.1206051419999113  0.6318738494147322
