HfO2 polar amplitude lambda=0.80 (x=0.10 mirror fraction)
   1.00000000000000
      4.9968800488597669    0.0000000121058044    0.0000001445341506
      0.0000000094452654    5.0188070423923037    0.0000001708411132
      0.0000001208533371    0.0000002046344393    5.2030025292893249
  Hf  O
  4  8
Direct
    0.2679203943091855  0.7443086258405127  0.0333282209463748
    0.2679204399210101  0.2443086064644477  0.4666717477798907
    0.7320796033559180  0.7443086205837218  0.5333281589349601
    0.7320795656368406  0.2443086111139208  0.9666716962000371
    0.0722524196573279  0.6346387674420699  0.3681264133132088
    0.0722522449186821  0.1346386754606765  0.1318740485784899
    0.4593122295836129  0.4951165174721888  0.7380992354629845
    0.4593121431621874  0.9951164892122709  0.7619005673616146
    0.5406878156159359  0.9951165184179728  0.2619005931722035
    0.5406878143743911  0.4951164880727313  0.2380992592250997
    0.9277476681005912  0.6346387144492346  0.8681262096104037
    0.9277476613643174  0.1346387270662632  0.6318738494147322
