Rotated POSCAR by SURFACE card in pn.in by Simphony
1.0
    4.996880    0.000000    0.000000
    0.000000    5.018807    0.000000
    0.000000    0.000000    5.203003
Hf    O     
     4     8
Direct
    0.267920    0.757693    0.033328       Hf
    0.267920    0.257692    0.466672       Hf
    0.732080    0.757693    0.533328       Hf
    0.732080    0.257692    0.966672       Hf
    0.072252    0.620605    0.368126        O
    0.072252    0.120605    0.131874        O
    0.459312    0.508702    0.735124        O
    0.459312    0.008702    0.764876        O
    0.540688    0.008702    0.264876        O
    0.540688    0.508702    0.235124        O
    0.927748    0.620605    0.868126        O
    0.927748    0.120605    0.631874        O
