Hf4 O8                                  
   1.00000000000000     
     0.0000000000000000    0.0000000000000000   -5.0730394516750836
     4.8720463192512344    0.0000000000000000    0.0000000000000003
    -0.0000000000000008   -5.1118321535659925   -0.0000000000000003
  Hf              O             
     4     8
Direct
     0.9655789694015753    0.2701766100052543    0.2431121309293772
     0.5344210305984247    0.2701766100052543    0.7431121309293773
     0.4655789694015753    0.7298233899947454    0.2431121309293772
     0.0344210305984247    0.7298233899947454    0.7431121309293773
     0.6281915339752639    0.0766745893674012    0.3775135090762078
     0.8718084660247361    0.0766745893674012    0.8775135090762081
     0.2594297910088159    0.4531708858804390    0.4923743599944218
     0.2405702089911842    0.4531708858804390    0.9923743599944216
     0.7405702089911841    0.5468291141195609    0.9923743599944216
     0.7594297910088159    0.5468291141195609    0.4923743599944218
     0.1281915339752635    0.9233254106325988    0.3775135090762078
     0.3718084660247364    0.9233254106325988    0.8775135090762081
 
  0.00000000E+00  0.00000000E+00  0.00000000E+00
  0.00000000E+00  0.00000000E+00  0.00000000E+00
  0.00000000E+00  0.00000000E+00  0.00000000E+00
  0.00000000E+00  0.00000000E+00  0.00000000E+00
  0.00000000E+00  0.00000000E+00  0.00000000E+00
  0.00000000E+00  0.00000000E+00  0.00000000E+00
  0.00000000E+00  0.00000000E+00  0.00000000E+00
  0.00000000E+00  0.00000000E+00  0.00000000E+00
  0.00000000E+00  0.00000000E+00  0.00000000E+00
  0.00000000E+00  0.00000000E+00  0.00000000E+00
  0.00000000E+00  0.00000000E+00  0.00000000E+00
  0.00000000E+00  0.00000000E+00  0.00000000E+00
