Rotated POSCAR by SURFACE card in pn.in by Simphony
1.0
    5.054811    0.000000    0.000000
    0.000000    4.980947    0.000000
    0.000000    0.000000    5.271658
Hf    O     
     4     8
Direct
    0.266765    0.758660    0.032989       Hf
    0.266766    0.258660    0.467011       Hf
    0.733235    0.758660    0.532989       Hf
    0.733234    0.258660    0.967011       Hf
    0.069771    0.619215    0.366615        O
    0.069771    0.119215    0.133385        O
    0.462628    0.509125    0.730748        O
    0.462628    0.009125    0.769252        O
    0.537372    0.009125    0.269252        O
    0.537372    0.509124    0.230748        O
    0.930229    0.619215    0.866615        O
    0.930229    0.119215    0.633385        O
