POSCAR for slab defined by SURFACE card and Nslab and Vacuum_thickness_in_Angstrom in pn.in by Simphony
1.0
    5.054811    0.000000    0.000000
    0.000000    4.980947    0.000000
    0.000000    0.000000   73.883668
Hf    O     
    40    80
Cartesian
    1.348449    3.778846   10.667774       Hf
    1.348449    3.778846   15.939432       Hf
    1.348449    3.778846   21.211090       Hf
    1.348449    3.778846   26.482748       Hf
    1.348449    3.778846   31.754406       Hf
    1.348449    3.778846   37.026064       Hf
    1.348449    3.778846   42.297722       Hf
    1.348449    3.778846   47.569380       Hf
    1.348449    3.778846   52.841038       Hf
    1.348449    3.778846   58.112696       Hf
    1.348450    1.288372   12.955791       Hf
    1.348450    1.288372   18.227449       Hf
    1.348450    1.288372   23.499107       Hf
    1.348450    1.288372   28.770765       Hf
    1.348450    1.288372   34.042423       Hf
    1.348450    1.288372   39.314081       Hf
    1.348450    1.288372   44.585739       Hf
    1.348450    1.288372   49.857397       Hf
    1.348450    1.288372   55.129055       Hf
    1.348450    1.288372   60.400713       Hf
    3.706363    3.778846   13.303603       Hf
    3.706363    3.778846   18.575261       Hf
    3.706363    3.778846   23.846919       Hf
    3.706363    3.778846   29.118577       Hf
    3.706363    3.778846   34.390235       Hf
    3.706363    3.778846   39.661893       Hf
    3.706363    3.778846   44.933551       Hf
    3.706363    3.778846   50.205209       Hf
    3.706363    3.778846   55.476867       Hf
    3.706363    3.778846   60.748525       Hf
    3.706362    1.288372   15.591619       Hf
    3.706362    1.288372   20.863277       Hf
    3.706362    1.288372   26.134935       Hf
    3.706362    1.288372   31.406593       Hf
    3.706362    1.288372   36.678251       Hf
    3.706362    1.288372   41.949909       Hf
    3.706362    1.288372   47.221567       Hf
    3.706362    1.288372   52.493225       Hf
    3.706362    1.288372   57.764883       Hf
    3.706362    1.288372   63.036541       Hf
    0.352680    3.084279   12.426537        O
    0.352680    3.084279   17.698195        O
    0.352680    3.084279   22.969853        O
    0.352680    3.084279   28.241511        O
    0.352680    3.084279   33.513169        O
    0.352680    3.084279   38.784827        O
    0.352680    3.084279   44.056485        O
    0.352680    3.084279   49.328143        O
    0.352680    3.084279   54.599801        O
    0.352680    3.084279   59.871459        O
    0.352680    0.593805   11.197030        O
    0.352680    0.593805   16.468688        O
    0.352680    0.593805   21.740346        O
    0.352680    0.593805   27.012004        O
    0.352680    0.593805   32.283662        O
    0.352680    0.593805   37.555320        O
    0.352680    0.593805   42.826978        O
    0.352680    0.593805   48.098636        O
    0.352680    0.593805   53.370294        O
    0.352680    0.593805   58.641951        O
    2.338498    2.535922   14.346122        O
    2.338498    2.535922   19.617780        O
    2.338498    2.535922   24.889438        O
    2.338498    2.535922   30.161096        O
    2.338498    2.535922   35.432754        O
    2.338498    2.535922   40.704412        O
    2.338498    2.535922   45.976070        O
    2.338498    2.535922   51.247728        O
    2.338498    2.535922   56.519386        O
    2.338498    2.535922   61.791044        O
    2.338498    0.045449   14.549099        O
    2.338498    0.045449   19.820757        O
    2.338498    0.045449   25.092415        O
    2.338498    0.045449   30.364073        O
    2.338498    0.045449   35.635731        O
    2.338498    0.045449   40.907389        O
    2.338498    0.045449   46.179047        O
    2.338498    0.045449   51.450705        O
    2.338498    0.045449   56.722363        O
    2.338498    0.045449   61.994021        O
    2.716313    0.045449   11.913271        O
    2.716313    0.045449   17.184929        O
    2.716313    0.045449   22.456587        O
    2.716313    0.045449   27.728245        O
    2.716313    0.045449   32.999903        O
    2.716313    0.045449   38.271561        O
    2.716313    0.045449   43.543219        O
    2.716313    0.045449   48.814877        O
    2.716313    0.045449   54.086535        O
    2.716313    0.045449   59.358193        O
    2.716314    2.535922   11.710294        O
    2.716314    2.535922   16.981952        O
    2.716314    2.535922   22.253610        O
    2.716314    2.535922   27.525268        O
    2.716314    2.535922   32.796926        O
    2.716314    2.535922   38.068584        O
    2.716314    2.535922   43.340242        O
    2.716314    2.535922   48.611900        O
    2.716314    2.535922   53.883558        O
    2.716314    2.535922   59.155216        O
    4.702132    3.084279   15.062365        O
    4.702132    3.084279   20.334023        O
    4.702132    3.084279   25.605681        O
    4.702132    3.084279   30.877339        O
    4.702132    3.084279   36.148997        O
    4.702132    3.084279   41.420655        O
    4.702132    3.084279   46.692313        O
    4.702132    3.084279   51.963971        O
    4.702132    3.084279   57.235629        O
    4.702132    3.084279   62.507287        O
    4.702130    0.593805   13.832858        O
    4.702130    0.593805   19.104516        O
    4.702130    0.593805   24.376174        O
    4.702130    0.593805   29.647832        O
    4.702130    0.593805   34.919490        O
    4.702130    0.593805   40.191148        O
    4.702130    0.593805   45.462806        O
    4.702130    0.593805   50.734464        O
    4.702130    0.593805   56.006122        O
    4.702130    0.593805   61.277780        O
