POSCAR for generated by Simphony
1.0
    5.054811    0.000000    0.000000
    0.000000    4.980947    0.000000
    0.000000    0.000000    5.271658
Hf    O     
     4     8
Direct
    0.266765    0.758660    0.015978       Hf
    0.266766    0.258660    0.450000       Hf
    0.733235    0.758660    0.515978       Hf
    0.733234    0.258660    0.950000       Hf
    0.069771    0.619215    0.349604        O
    0.069771    0.119215    0.116374        O
    0.462628    0.509125    0.713737        O
    0.462628    0.009125    0.752241        O
    0.537372    0.009125    0.252241        O
    0.537372    0.509124    0.213737        O
    0.930229    0.619215    0.849604        O
    0.930229    0.119215    0.616374        O
