Hf4 O8                                  
   1.00000000000000     
     4.9513513951551129   -0.0000000033265109    0.0000000666989855
    -0.0000000036050762    5.0559589707013206    0.0000002488177168
     0.0000000689902120    0.0000002576212037    5.1468868090969293
  Hf              O             
     4     8
Direct
     0.2690831387647700    0.2426730270128805    0.0342747927227252
     0.2690831555127168    0.7426729946096626    0.4657253518754595
     0.7309167936145609    0.2426730180674674    0.5342747741614112
     0.7309169119771112    0.7426730037897635    0.9657253326438160
     0.0748141655813345    0.3784907457450338    0.3700283151407284
     0.0748143040293524    0.8784906741607679    0.1299714735527459
     0.4563113872083713    0.4918362869792435    0.7391045815199617
     0.4563114314137083    0.9918362712091732    0.7608956463642452
     0.5436885823783936    0.9918362777811690    0.2608955491849181
     0.5436885992082970    0.4918362805886455    0.2391044844818146
     0.9251858220423185    0.3784907351005679    0.8700282701095973
     0.9251857082690725    0.8784906849556304    0.6299714282425838
 
  0.00000000E+00  0.00000000E+00  0.00000000E+00
  0.00000000E+00  0.00000000E+00  0.00000000E+00
  0.00000000E+00  0.00000000E+00  0.00000000E+00
  0.00000000E+00  0.00000000E+00  0.00000000E+00
  0.00000000E+00  0.00000000E+00  0.00000000E+00
  0.00000000E+00  0.00000000E+00  0.00000000E+00
  0.00000000E+00  0.00000000E+00  0.00000000E+00
  0.00000000E+00  0.00000000E+00  0.00000000E+00
  0.00000000E+00  0.00000000E+00  0.00000000E+00
  0.00000000E+00  0.00000000E+00  0.00000000E+00
  0.00000000E+00  0.00000000E+00  0.00000000E+00
  0.00000000E+00  0.00000000E+00  0.00000000E+00
