POSCAR for slab defined by SURFACE card and Nslab and Vacuum_thickness_in_Angstrom in pn.in by Simphony
1.0
    0.000000    0.000000   -5.047024
    4.847061    0.000000    0.000000
   -0.000000  -72.424746    0.000000
Hf    O     
    40    80
Cartesian
    1.312069  -11.611425   -4.871966       Hf
    1.312069  -16.737190   -4.871966       Hf
    1.312069  -21.862956   -4.871966       Hf
    1.312069  -26.988722   -4.871966       Hf
    1.312069  -32.114488   -4.871966       Hf
    1.312069  -37.240253   -4.871966       Hf
    1.312069  -42.366019   -4.871966       Hf
    1.312069  -47.491785   -4.871966       Hf
    1.312069  -52.617550   -4.871966       Hf
    1.312069  -57.743316   -4.871966       Hf
    1.312069  -14.174308   -2.698570       Hf
    1.312069  -19.300073   -2.698570       Hf
    1.312069  -24.425839   -2.698570       Hf
    1.312069  -29.551605   -2.698570       Hf
    1.312069  -34.677370   -2.698570       Hf
    1.312069  -39.803136   -2.698570       Hf
    1.312069  -44.928902   -2.698570       Hf
    1.312069  -50.054668   -2.698570       Hf
    1.312069  -55.180433   -2.698570       Hf
    1.312069  -60.306199   -2.698570       Hf
    3.534992  -11.611425   -2.348454       Hf
    3.534992  -16.737190   -2.348454       Hf
    3.534992  -21.862956   -2.348454       Hf
    3.534992  -26.988722   -2.348454       Hf
    3.534992  -32.114488   -2.348454       Hf
    3.534992  -37.240253   -2.348454       Hf
    3.534992  -42.366019   -2.348454       Hf
    3.534992  -47.491785   -2.348454       Hf
    3.534992  -52.617550   -2.348454       Hf
    3.534992  -57.743316   -2.348454       Hf
    3.534992  -14.174308   -0.175058       Hf
    3.534992  -19.300073   -0.175058       Hf
    3.534992  -24.425839   -0.175058       Hf
    3.534992  -29.551605   -0.175058       Hf
    3.534992  -34.677370   -0.175058       Hf
    3.534992  -39.803136   -0.175058       Hf
    3.534992  -44.928902   -0.175058       Hf
    3.534992  -50.054668   -0.175058       Hf
    3.534992  -55.180433   -0.175058       Hf
    3.534992  -60.306199   -0.175058       Hf
    0.377991  -12.294661   -3.163944        O
    0.377991  -17.420427   -3.163944        O
    0.377991  -22.546192   -3.163944        O
    0.377991  -27.671958   -3.163944        O
    0.377991  -32.797724   -3.163944        O
    0.377991  -37.923490   -3.163944        O
    0.377991  -43.049255   -3.163944        O
    0.377991  -48.175021   -3.163944        O
    0.377991  -53.300787   -3.163944        O
    0.377991  -58.426552   -3.163944        O
    0.377991  -14.857544   -4.406592        O
    0.377991  -19.983310   -4.406592        O
    0.377991  -25.109075   -4.406592        O
    0.377991  -30.234841   -4.406592        O
    0.377991  -35.360607   -4.406592        O
    0.377991  -40.486372   -4.406592        O
    0.377991  -45.612138   -4.406592        O
    0.377991  -50.737904   -4.406592        O
    0.377991  -55.863670   -4.406592        O
    0.377991  -60.989435   -4.406592        O
    2.190115  -12.890139   -1.304136        O
    2.190115  -18.015905   -1.304136        O
    2.190115  -23.141670   -1.304136        O
    2.190115  -28.267436   -1.304136        O
    2.190115  -33.393202   -1.304136        O
    2.190115  -38.518967   -1.304136        O
    2.190115  -43.644733   -1.304136        O
    2.190115  -48.770499   -1.304136        O
    2.190115  -53.896265   -1.304136        O
    2.190115  -59.022030   -1.304136        O
    2.190115  -15.453022   -1.219375        O
    2.190115  -20.578787   -1.219375        O
    2.190115  -25.704553   -1.219375        O
    2.190115  -30.830319   -1.219375        O
    2.190115  -35.956085   -1.219375        O
    2.190115  -41.081850   -1.219375        O
    2.190115  -46.207616   -1.219375        O
    2.190115  -51.333382   -1.219375        O
    2.190115  -56.459147   -1.219375        O
    2.190115  -61.584913   -1.219375        O
    2.656946  -15.453022   -3.742887        O
    2.656946  -20.578787   -3.742887        O
    2.656946  -25.704553   -3.742887        O
    2.656946  -30.830319   -3.742887        O
    2.656946  -35.956085   -3.742887        O
    2.656946  -41.081850   -3.742887        O
    2.656946  -46.207616   -3.742887        O
    2.656946  -51.333382   -3.742887        O
    2.656946  -56.459147   -3.742887        O
    2.656946  -61.584913   -3.742887        O
    2.656946  -12.890139   -3.827648        O
    2.656946  -18.015905   -3.827648        O
    2.656946  -23.141670   -3.827648        O
    2.656946  -28.267436   -3.827648        O
    2.656946  -33.393202   -3.827648        O
    2.656946  -38.518967   -3.827648        O
    2.656946  -43.644733   -3.827648        O
    2.656946  -48.770499   -3.827648        O
    2.656946  -53.896265   -3.827648        O
    2.656946  -59.022030   -3.827648        O
    4.469071  -12.294661   -0.640432        O
    4.469071  -17.420427   -0.640432        O
    4.469071  -22.546192   -0.640432        O
    4.469071  -27.671958   -0.640432        O
    4.469071  -32.797724   -0.640432        O
    4.469071  -37.923490   -0.640432        O
    4.469071  -43.049255   -0.640432        O
    4.469071  -48.175021   -0.640432        O
    4.469071  -53.300787   -0.640432        O
    4.469071  -58.426552   -0.640432        O
    4.469071  -14.857544   -1.883080        O
    4.469071  -19.983310   -1.883080        O
    4.469071  -25.109075   -1.883080        O
    4.469071  -30.234841   -1.883080        O
    4.469071  -35.360607   -1.883080        O
    4.469071  -40.486372   -1.883080        O
    4.469071  -45.612138   -1.883080        O
    4.469071  -50.737904   -1.883080        O
    4.469071  -55.863670   -1.883080        O
    4.469071  -60.989435   -1.883080        O
