POSCAR for slab defined by SURFACE card and Nslab and Vacuum_thickness_in_Angstrom in pn.in by Simphony
1.0
    0.000000    0.000000   -5.073039
    4.872046    0.000000    0.000000
   -0.000000  -72.285410    0.000000
Hf    O     
    40    80
Cartesian
    1.316313  -11.609682   -4.898420       Hf
    1.316313  -16.721514   -4.898420       Hf
    1.316313  -21.833346   -4.898420       Hf
    1.316313  -26.945178   -4.898420       Hf
    1.316313  -32.057011   -4.898420       Hf
    1.316313  -37.168843   -4.898420       Hf
    1.316313  -42.280675   -4.898420       Hf
    1.316313  -47.392507   -4.898420       Hf
    1.316313  -52.504339   -4.898420       Hf
    1.316313  -57.616171   -4.898420       Hf
    1.316313  -14.165598   -2.711139       Hf
    1.316313  -19.277430   -2.711139       Hf
    1.316313  -24.389262   -2.711139       Hf
    1.316313  -29.501095   -2.711139       Hf
    1.316313  -34.612927   -2.711139       Hf
    1.316313  -39.724759   -2.711139       Hf
    1.316313  -44.836591   -2.711139       Hf
    1.316313  -49.948423   -2.711139       Hf
    1.316313  -55.060255   -2.711139       Hf
    1.316313  -60.172087   -2.711139       Hf
    3.555733  -11.609682   -2.361900       Hf
    3.555733  -16.721514   -2.361900       Hf
    3.555733  -21.833346   -2.361900       Hf
    3.555733  -26.945178   -2.361900       Hf
    3.555733  -32.057011   -2.361900       Hf
    3.555733  -37.168843   -2.361900       Hf
    3.555733  -42.280675   -2.361900       Hf
    3.555733  -47.392507   -2.361900       Hf
    3.555733  -52.504339   -2.361900       Hf
    3.555733  -57.616171   -2.361900       Hf
    3.555733  -14.165598   -0.174619       Hf
    3.555733  -19.277430   -0.174619       Hf
    3.555733  -24.389262   -0.174619       Hf
    3.555733  -29.501095   -0.174619       Hf
    3.555733  -34.612927   -0.174619       Hf
    3.555733  -39.724759   -0.174619       Hf
    3.555733  -44.836591   -0.174619       Hf
    3.555733  -49.948423   -0.174619       Hf
    3.555733  -55.060255   -0.174619       Hf
    3.555733  -60.172087   -0.174619       Hf
    0.373562  -12.296719   -3.186840        O
    0.373562  -17.408551   -3.186840        O
    0.373562  -22.520384   -3.186840        O
    0.373562  -27.632216   -3.186840        O
    0.373562  -32.744048   -3.186840        O
    0.373562  -37.855880   -3.186840        O
    0.373562  -42.967712   -3.186840        O
    0.373562  -48.079544   -3.186840        O
    0.373562  -53.191377   -3.186840        O
    0.373562  -58.303209   -3.186840        O
    0.373562  -14.852635   -4.422719        O
    0.373562  -19.964468   -4.422719        O
    0.373562  -25.076300   -4.422719        O
    0.373562  -30.188132   -4.422719        O
    0.373562  -35.299964   -4.422719        O
    0.373562  -40.411796   -4.422719        O
    0.373562  -45.523628   -4.422719        O
    0.373562  -50.635460   -4.422719        O
    0.373562  -55.747293   -4.422719        O
    0.373562  -60.859125   -4.422719        O
    2.207870  -12.883869   -1.316098        O
    2.207870  -17.995701   -1.316098        O
    2.207870  -23.107533   -1.316098        O
    2.207870  -28.219365   -1.316098        O
    2.207870  -33.331197   -1.316098        O
    2.207870  -38.443029   -1.316098        O
    2.207870  -43.554862   -1.316098        O
    2.207870  -48.666694   -1.316098        O
    2.207870  -53.778526   -1.316098        O
    2.207870  -58.890358   -1.316098        O
    2.207870  -15.439785   -1.220422        O
    2.207870  -20.551617   -1.220422        O
    2.207870  -25.663449   -1.220422        O
    2.207870  -30.775281   -1.220422        O
    2.207870  -35.887113   -1.220422        O
    2.207870  -40.998946   -1.220422        O
    2.207870  -46.110778   -1.220422        O
    2.207870  -51.222610   -1.220422        O
    2.207870  -56.334442   -1.220422        O
    2.207870  -61.446274   -1.220422        O
    2.664177  -15.439785   -3.756942        O
    2.664177  -20.551617   -3.756942        O
    2.664177  -25.663449   -3.756942        O
    2.664177  -30.775281   -3.756942        O
    2.664177  -35.887113   -3.756942        O
    2.664177  -40.998946   -3.756942        O
    2.664177  -46.110778   -3.756942        O
    2.664177  -51.222610   -3.756942        O
    2.664177  -56.334442   -3.756942        O
    2.664177  -61.446274   -3.756942        O
    2.664177  -12.883869   -3.852617        O
    2.664177  -17.995701   -3.852617        O
    2.664177  -23.107533   -3.852617        O
    2.664177  -28.219365   -3.852617        O
    2.664177  -33.331197   -3.852617        O
    2.664177  -38.443029   -3.852617        O
    2.664177  -43.554862   -3.852617        O
    2.664177  -48.666694   -3.852617        O
    2.664177  -53.778526   -3.852617        O
    2.664177  -58.890358   -3.852617        O
    4.498484  -12.296719   -0.650321        O
    4.498484  -17.408551   -0.650321        O
    4.498484  -22.520384   -0.650321        O
    4.498484  -27.632216   -0.650321        O
    4.498484  -32.744048   -0.650321        O
    4.498484  -37.855880   -0.650321        O
    4.498484  -42.967712   -0.650321        O
    4.498484  -48.079544   -0.650321        O
    4.498484  -53.191377   -0.650321        O
    4.498484  -58.303209   -0.650321        O
    4.498484  -14.852635   -1.886199        O
    4.498484  -19.964468   -1.886199        O
    4.498484  -25.076300   -1.886199        O
    4.498484  -30.188132   -1.886199        O
    4.498484  -35.299964   -1.886199        O
    4.498484  -40.411796   -1.886199        O
    4.498484  -45.523628   -1.886199        O
    4.498484  -50.635460   -1.886199        O
    4.498484  -55.747293   -1.886199        O
    4.498484  -60.859125   -1.886199        O
