POSCAR for generated by Simphony
1.0
    0.000000    0.000000   -5.073039
    4.872046    0.000000    0.000000
   -0.000000   -5.111832    0.000000
Hf    O     
     4     8
Direct
    0.965579    0.270177    0.200738       Hf
    0.534421    0.270177    0.700738       Hf
    0.465579    0.729823    0.200738       Hf
    0.034421    0.729823    0.700738       Hf
    0.628192    0.076675    0.335139        O
    0.871808    0.076675    0.835139        O
    0.259430    0.453171    0.450000        O
    0.240570    0.453171    0.950000        O
    0.740570    0.546829    0.950000        O
    0.759430    0.546829    0.450000        O
    0.128192    0.923325    0.335139        O
    0.371808    0.923325    0.835139        O
