POSCAR for generated by Simphony
1.0
    4.996880    0.000000    0.000000
    0.000000    5.018807    0.000000
    0.000000    0.000000    5.203003
Hf    O     
     4     8
Direct
    0.267920    0.757693    0.016657       Hf
    0.267920    0.257692    0.450000       Hf
    0.732080    0.757693    0.516656       Hf
    0.732080    0.257692    0.950000       Hf
    0.072252    0.620605    0.351455        O
    0.072252    0.120605    0.115202        O
    0.459312    0.508702    0.718452        O
    0.459312    0.008702    0.748204        O
    0.540688    0.008702    0.248204        O
    0.540688    0.508702    0.218452        O
    0.927748    0.620605    0.851455        O
    0.927748    0.120605    0.615202        O
