Hf4 O8                                  
   1.00000000000000     
     5.0013650456112249   -0.0000000033365167    0.0000000673727126
    -0.0000000036050762    5.0204550027039927    0.0000002488177168
     0.0000000696870828    0.0000002583960964    5.1988755647443732
  Hf              O             
     4     8
Direct
     0.2680916789881131    0.2421548406231357    0.0335086520369930
     0.2680917029105138    0.7421548202017093    0.4664915431838635
     0.7319082942391029    0.2421548444483481    0.5335085546280182
     0.7319083250813869    0.7421548162830901    0.9664914470944500
     0.0724340682264970    0.3800303242477320    0.3679362466015852
     0.0724340455031549    0.8800303348337410    0.1320636456509702
     0.4589990682090677    0.4908148326089850    0.7364300468289814
     0.4589990819160455    0.9908148479182023    0.7635701211940448
     0.5410008819869299    0.9908148244644539    0.2635701201612017
     0.5410009685029384    0.4908148544267592    0.2364300460957058
     0.9275660423262736    0.3800303788311766    0.8679360881376152
     0.9275658421099764    0.8800302811126647    0.6320634883865708
 
  0.00000000E+00  0.00000000E+00  0.00000000E+00
  0.00000000E+00  0.00000000E+00  0.00000000E+00
  0.00000000E+00  0.00000000E+00  0.00000000E+00
  0.00000000E+00  0.00000000E+00  0.00000000E+00
  0.00000000E+00  0.00000000E+00  0.00000000E+00
  0.00000000E+00  0.00000000E+00  0.00000000E+00
  0.00000000E+00  0.00000000E+00  0.00000000E+00
  0.00000000E+00  0.00000000E+00  0.00000000E+00
  0.00000000E+00  0.00000000E+00  0.00000000E+00
  0.00000000E+00  0.00000000E+00  0.00000000E+00
  0.00000000E+00  0.00000000E+00  0.00000000E+00
  0.00000000E+00  0.00000000E+00  0.00000000E+00
