Hf4 O8                                  
   1.00000000000000     
     0.0000000000000000    0.0000000000000000   -5.2031173863334192
     4.9969705838474203    0.0000000000000000    0.0000000000000003
    -0.0000000000000008   -5.0189810049739743   -0.0000000000000003
  Hf              O             
     4     8
Direct
     0.9666831445832003    0.2679053443723518    0.2422256634711388
     0.5333168554167997    0.2679053443723518    0.7422256634711388
     0.4666831445832003    0.7320946556276482    0.2422256634711388
     0.0333168554167997    0.7320946556276482    0.7422256634711388
     0.6319720393066888    0.0721521570898176    0.3795987215602352
     0.8680279606933112    0.0721521570898176    0.8795987215602352
     0.2649008405701636    0.4592835986551904    0.4911756149686326
     0.2350991594298364    0.4592835986551904    0.9911756149686326
     0.7350991594298364    0.5407164013448096    0.9911756149686326
     0.7649008405701636    0.5407164013448096    0.4911756149686326
     0.1319720393066888    0.9278478429101824    0.3795987215602352
     0.3680279606933112    0.9278478429101824    0.8795987215602352
 
  0.00000000E+00  0.00000000E+00  0.00000000E+00
  0.00000000E+00  0.00000000E+00  0.00000000E+00
  0.00000000E+00  0.00000000E+00  0.00000000E+00
  0.00000000E+00  0.00000000E+00  0.00000000E+00
  0.00000000E+00  0.00000000E+00  0.00000000E+00
  0.00000000E+00  0.00000000E+00  0.00000000E+00
  0.00000000E+00  0.00000000E+00  0.00000000E+00
  0.00000000E+00  0.00000000E+00  0.00000000E+00
  0.00000000E+00  0.00000000E+00  0.00000000E+00
  0.00000000E+00  0.00000000E+00  0.00000000E+00
  0.00000000E+00  0.00000000E+00  0.00000000E+00
  0.00000000E+00  0.00000000E+00  0.00000000E+00
