POSCAR for generated by Simphony
1.0
    4.954716    0.000000    0.000000
    0.000000    5.044581    0.000000
    0.000000    0.000000    5.167269
Hf    O     
     4     8
Direct
    0.268677    0.757336    0.017450       Hf
    0.268677    0.257336    0.450000       Hf
    0.731323    0.757336    0.517450       Hf
    0.731323    0.257336    0.950000       Hf
    0.073632    0.621313    0.352848        O
    0.073631    0.121313    0.114603        O
    0.457217    0.508351    0.720793        O
    0.457217    0.008351    0.746657        O
    0.542783    0.008351    0.246657        O
    0.542783    0.508351    0.220793        O
    0.926368    0.621313    0.852848        O
    0.926369    0.121313    0.614603        O
