Rotated POSCAR by SURFACE card in pn.in by Simphony
1.0
    4.954716    0.000000    0.000000
    0.000000    5.044581    0.000000
    0.000000    0.000000    5.167269
Hf    O     
     4     8
Direct
    0.268677    0.757336    0.033725       Hf
    0.268677    0.257336    0.466275       Hf
    0.731323    0.757336    0.533725       Hf
    0.731323    0.257336    0.966275       Hf
    0.073632    0.621313    0.369123        O
    0.073631    0.121313    0.130878        O
    0.457217    0.508351    0.737068        O
    0.457217    0.008351    0.762932        O
    0.542783    0.008351    0.262932        O
    0.542783    0.508351    0.237068        O
    0.926368    0.621313    0.869123        O
    0.926369    0.121313    0.630877        O
