POSCAR for generated by Simphony
1.0
    0.000000    0.000000   -5.047024
    4.847061    0.000000    0.000000
   -0.000000   -5.125766   -0.000000
Hf    O     
     4     8
Direct
    0.965315    0.270694    0.243413       Hf
    0.534685    0.270694    0.743413       Hf
    0.465315    0.729306    0.243413       Hf
    0.034685    0.729306    0.743413       Hf
    0.626893    0.077984    0.376707        O
    0.873107    0.077984    0.876707        O
    0.258397    0.451844    0.492880        O
    0.241603    0.451844    0.992880        O
    0.741603    0.548156    0.992880        O
    0.758397    0.548156    0.492880        O
    0.126893    0.922016    0.376707        O
    0.373107    0.922016    0.876707        O
