Hf4 O8 mirror biaxial m1                
   1.00000000000000     
     4.9547160531000003    0.0000000000000000    0.0000000000000003
    -0.0000000000000003    5.0445814770959094    0.0000000000000003
     0.0000000000000000    0.0000000000000000    5.1672687263999997
  Hf              O             
     4     8
Direct
     0.2686773675027950    0.7573360428950875    0.0337249861688439
     0.2686774160535576    0.2573360260879275    0.4662749607064953
     0.7313226080812267    0.7573360484859906    0.5337249500491504
     0.7313226073799509    0.2573360209741946    0.9662749252134186
     0.0736315861506505    0.6213130156635041    0.3691227852668412
     0.0736314121555350    0.1213129287881106    0.1308775832983339
     0.4572170655181589    0.5083509987517146    0.7370678096204327
     0.4572169902499199    0.0083509869262350    0.7629321194165457
     0.5427829859941898    0.0083509909845506    0.2629320427835268
     0.5427829554249357    0.5083509943989736    0.2370677336684167
     0.9263684777045565    0.6213129823650170    0.8691226540989349
     0.9263685277845238    0.1213129636786967    0.6308774497090600
 
  0.00000000E+00  0.00000000E+00  0.00000000E+00
  0.00000000E+00  0.00000000E+00  0.00000000E+00
  0.00000000E+00  0.00000000E+00  0.00000000E+00
  0.00000000E+00  0.00000000E+00  0.00000000E+00
  0.00000000E+00  0.00000000E+00  0.00000000E+00
  0.00000000E+00  0.00000000E+00  0.00000000E+00
  0.00000000E+00  0.00000000E+00  0.00000000E+00
  0.00000000E+00  0.00000000E+00  0.00000000E+00
  0.00000000E+00  0.00000000E+00  0.00000000E+00
  0.00000000E+00  0.00000000E+00  0.00000000E+00
  0.00000000E+00  0.00000000E+00  0.00000000E+00
  0.00000000E+00  0.00000000E+00  0.00000000E+00
