Hf4 O8                                  
   1.00000000000000     
     0.0000000000000000    0.0000000000000000   -5.0470238647434167
     4.8470614663319980    0.0000000000000000    0.0000000000000003
    -0.0000000000000008   -5.1257657142022062   -0.0000000000000003
  Hf              O             
     4     8
Direct
     0.9653146575469502    0.2706937632932683    0.2434125297032883
     0.5346853424530498    0.2706937632932683    0.7434125297033595
     0.4653146575468436    0.7293062367067742    0.2434125297032883
     0.0346853424531847    0.7293062367067742    0.7434125297033595
     0.6268929631284467    0.0779835164446214    0.3767070201675561
     0.8731070368715533    0.0779835164446214    0.8767070201675989
     0.2583971313309306    0.4518439343605779    0.4928804501291195
     0.2416028686690338    0.4518439343605779    0.9928804501291765
     0.7416028686690338    0.5481560656395216    0.9928804501291765
     0.7583971313309662    0.5481560656395216    0.4928804501291195
     0.1268929631284823    0.9220164835553287    0.3767070201675561
     0.3731070368715247    0.9220164835553287    0.8767070201675989
 
  0.00000000E+00  0.00000000E+00  0.00000000E+00
  0.00000000E+00  0.00000000E+00  0.00000000E+00
  0.00000000E+00  0.00000000E+00  0.00000000E+00
  0.00000000E+00  0.00000000E+00  0.00000000E+00
  0.00000000E+00  0.00000000E+00  0.00000000E+00
  0.00000000E+00  0.00000000E+00  0.00000000E+00
  0.00000000E+00  0.00000000E+00  0.00000000E+00
  0.00000000E+00  0.00000000E+00  0.00000000E+00
  0.00000000E+00  0.00000000E+00  0.00000000E+00
  0.00000000E+00  0.00000000E+00  0.00000000E+00
  0.00000000E+00  0.00000000E+00  0.00000000E+00
  0.00000000E+00  0.00000000E+00  0.00000000E+00
