Rotated POSCAR by SURFACE card in pn.in by Simphony
1.0
    0.000000    0.000000   -5.203031
    4.996952    0.000000    0.000000
   -0.000000   -5.018972    0.000000
Hf    O     
     4     8
Direct
    0.966697    0.267899    0.757777       Hf
    0.533303    0.267899    0.257777       Hf
    0.466697    0.732101    0.757777       Hf
    0.033303    0.732101    0.257777       Hf
    0.632000    0.072138    0.620383        O
    0.868000    0.072138    0.120383        O
    0.264919    0.459291    0.508839        O
    0.235081    0.459291    0.008839        O
    0.735081    0.540709    0.008839        O
    0.764919    0.540709    0.508839        O
    0.132000    0.927862    0.620383        O
    0.368000    0.927862    0.120383        O
