POSCAR for slab defined by SURFACE card and Nslab and Vacuum_thickness_in_Angstrom in pn.in by Simphony
1.0
    0.000000    0.000000   -5.203031
    4.996952    0.000000    0.000000
   -0.000000  -71.356808    0.000000
Hf    O     
    40    80
Cartesian
    1.338677  -15.351568   -5.029752       Hf
    1.338677  -20.370540   -5.029752       Hf
    1.338677  -25.389511   -5.029752       Hf
    1.338677  -30.408483   -5.029752       Hf
    1.338677  -35.427455   -5.029752       Hf
    1.338677  -40.446427   -5.029752       Hf
    1.338677  -45.465399   -5.029752       Hf
    1.338677  -50.484371   -5.029752       Hf
    1.338677  -55.503343   -5.029752       Hf
    1.338677  -60.522315   -5.029752       Hf
    1.338677  -12.842082   -2.774794       Hf
    1.338677  -17.861054   -2.774794       Hf
    1.338677  -22.880025   -2.774794       Hf
    1.338677  -27.898997   -2.774794       Hf
    1.338677  -32.917969   -2.774794       Hf
    1.338677  -37.936941   -2.774794       Hf
    1.338677  -42.955913   -2.774794       Hf
    1.338677  -47.974885   -2.774794       Hf
    1.338677  -52.993857   -2.774794       Hf
    1.338677  -58.012829   -2.774794       Hf
    3.658275  -15.351568   -2.428237       Hf
    3.658275  -20.370540   -2.428237       Hf
    3.658275  -25.389511   -2.428237       Hf
    3.658275  -30.408483   -2.428237       Hf
    3.658275  -35.427455   -2.428237       Hf
    3.658275  -40.446427   -2.428237       Hf
    3.658275  -45.465399   -2.428237       Hf
    3.658275  -50.484371   -2.428237       Hf
    3.658275  -55.503343   -2.428237       Hf
    3.658275  -60.522315   -2.428237       Hf
    3.658275  -12.842082   -0.173279       Hf
    3.658275  -17.861054   -0.173279       Hf
    3.658275  -22.880025   -0.173279       Hf
    3.658275  -27.898997   -0.173279       Hf
    3.658275  -32.917969   -0.173279       Hf
    3.658275  -37.936941   -0.173279       Hf
    3.658275  -42.955913   -0.173279       Hf
    3.658275  -47.974885   -0.173279       Hf
    3.658275  -52.993857   -0.173279       Hf
    3.658275  -58.012829   -0.173279       Hf
    0.360469  -14.661991   -3.288316        O
    0.360469  -19.680963   -3.288316        O
    0.360469  -24.699935   -3.288316        O
    0.360469  -29.718907   -3.288316        O
    0.360469  -34.737879   -3.288316        O
    0.360469  -39.756851   -3.288316        O
    0.360469  -44.775823   -3.288316        O
    0.360469  -49.794795   -3.288316        O
    0.360469  -54.813767   -3.288316        O
    0.360469  -59.832739   -3.288316        O
    0.360469  -12.152505   -4.516230        O
    0.360469  -17.171477   -4.516230        O
    0.360469  -22.190449   -4.516230        O
    0.360469  -27.209421   -4.516230        O
    0.360469  -32.228393   -4.516230        O
    0.360469  -37.247365   -4.516230        O
    0.360469  -42.266337   -4.516230        O
    0.360469  -47.285309   -4.516230        O
    0.360469  -52.304281   -4.516230        O
    0.360469  -57.323253   -4.516230        O
    2.295056  -14.102156   -1.378383        O
    2.295056  -19.121128   -1.378383        O
    2.295056  -24.140100   -1.378383        O
    2.295056  -29.159072   -1.378383        O
    2.295056  -34.178044   -1.378383        O
    2.295056  -39.197016   -1.378383        O
    2.295056  -44.215988   -1.378383        O
    2.295056  -49.234960   -1.378383        O
    2.295056  -54.253932   -1.378383        O
    2.295056  -59.272903   -1.378383        O
    2.295056  -11.592670   -1.223133        O
    2.295056  -16.611642   -1.223133        O
    2.295056  -21.630614   -1.223133        O
    2.295056  -26.649586   -1.223133        O
    2.295056  -31.668558   -1.223133        O
    2.295056  -36.687530   -1.223133        O
    2.295056  -41.706502   -1.223133        O
    2.295056  -46.725474   -1.223133        O
    2.295056  -51.744446   -1.223133        O
    2.295056  -56.763417   -1.223133        O
    2.701896  -11.592670   -3.824648        O
    2.701896  -16.611642   -3.824648        O
    2.701896  -21.630614   -3.824648        O
    2.701896  -26.649586   -3.824648        O
    2.701896  -31.668558   -3.824648        O
    2.701896  -36.687530   -3.824648        O
    2.701896  -41.706502   -3.824648        O
    2.701896  -46.725474   -3.824648        O
    2.701896  -51.744446   -3.824648        O
    2.701896  -56.763417   -3.824648        O
    2.701896  -14.102156   -3.979898        O
    2.701896  -19.121128   -3.979898        O
    2.701896  -24.140100   -3.979898        O
    2.701896  -29.159072   -3.979898        O
    2.701896  -34.178044   -3.979898        O
    2.701896  -39.197016   -3.979898        O
    2.701896  -44.215988   -3.979898        O
    2.701896  -49.234960   -3.979898        O
    2.701896  -54.253932   -3.979898        O
    2.701896  -59.272903   -3.979898        O
    4.636483  -14.661991   -0.686801        O
    4.636483  -19.680963   -0.686801        O
    4.636483  -24.699935   -0.686801        O
    4.636483  -29.718907   -0.686801        O
    4.636483  -34.737879   -0.686801        O
    4.636483  -39.756851   -0.686801        O
    4.636483  -44.775823   -0.686801        O
    4.636483  -49.794795   -0.686801        O
    4.636483  -54.813767   -0.686801        O
    4.636483  -59.832739   -0.686801        O
    4.636483  -12.152505   -1.914715        O
    4.636483  -17.171477   -1.914715        O
    4.636483  -22.190449   -1.914715        O
    4.636483  -27.209421   -1.914715        O
    4.636483  -32.228393   -1.914715        O
    4.636483  -37.247365   -1.914715        O
    4.636483  -42.266337   -1.914715        O
    4.636483  -47.285309   -1.914715        O
    4.636483  -52.304281   -1.914715        O
    4.636483  -57.323253   -1.914715        O
