Hf4 O8                                  
   1.00000000000000     
     0.0000000000000000    0.0000000000000000   -5.2030309868313527
     4.9969519647413732    0.0000000000000000    0.0000000000000003
    -0.0000000000000008   -5.0189719495041087   -0.0000000000000003
   Hf   O 
     4     8
Direct
  0.9666966184661874  0.2678987688069370  0.7577772334048305
  0.5333033815338126  0.2678987688069370  0.2577772334048305
  0.4666966184661874  0.7321012311930630  0.7577772334048305
  0.0333033815338126  0.7321012311930630  0.2577772334048305
  0.6320001386851999  0.0721377224784732  0.6203832962920472
  0.8679998613148001  0.0721377224784732  0.1203832962920472
  0.2649192046560103  0.4592911213001969  0.5088394703031227
  0.2350807953439897  0.4592911213001969  0.0088394703031227
  0.7350807953439897  0.5407088786998031  0.0088394703031227
  0.7649192046560103  0.5407088786998031  0.5088394703031227
  0.1320001386851999  0.9278622775215268  0.6203832962920472
  0.3679998613148001  0.9278622775215268  0.1203832962920472
 
  0.00000000E+00  0.00000000E+00  0.00000000E+00
  0.00000000E+00  0.00000000E+00  0.00000000E+00
  0.00000000E+00  0.00000000E+00  0.00000000E+00
  0.00000000E+00  0.00000000E+00  0.00000000E+00
  0.00000000E+00  0.00000000E+00  0.00000000E+00
  0.00000000E+00  0.00000000E+00  0.00000000E+00
  0.00000000E+00  0.00000000E+00  0.00000000E+00
  0.00000000E+00  0.00000000E+00  0.00000000E+00
  0.00000000E+00  0.00000000E+00  0.00000000E+00
  0.00000000E+00  0.00000000E+00  0.00000000E+00
  0.00000000E+00  0.00000000E+00  0.00000000E+00
  0.00000000E+00  0.00000000E+00  0.00000000E+00
