Hf4 O8                                  
   1.00000000000000     
    -0.0000000000000000   -0.0000000000000000   -5.2034620905209881
     4.9970162514687146    0.0000000000000000    0.0000000000000003
    -0.0000000000000008   -5.0190524372813803   -0.0000000000000003
   Hf   O 
     4     8
Direct
  0.9666792382128896  0.2679053047833684  0.7577722310022473
  0.5333207617871104  0.2679053047833684  0.2577722310022471
  0.4666792382128897  0.7320946952166314  0.7577722310022473
  0.0333207617871103  0.7320946952166314  0.2577722310022471
  0.6319513202714687  0.0721673553816511  0.6204256268735971
  0.8680486797285313  0.0721673553816511  0.1204256268735972
  0.2649057719467139  0.4592901214939059  0.5088021421241560
  0.2350942280532861  0.4592901214939059  0.0088021421241561
  0.7350942280532859  0.5407098785060941  0.0088021421241561
  0.7649057719467141  0.5407098785060941  0.5088021421241560
  0.1319513202714686  0.9278326446183490  0.6204256268735971
  0.3680486797285314  0.9278326446183490  0.1204256268735972
 
  0.00000000E+00  0.00000000E+00  0.00000000E+00
  0.00000000E+00  0.00000000E+00  0.00000000E+00
  0.00000000E+00  0.00000000E+00  0.00000000E+00
  0.00000000E+00  0.00000000E+00  0.00000000E+00
  0.00000000E+00  0.00000000E+00  0.00000000E+00
  0.00000000E+00  0.00000000E+00  0.00000000E+00
  0.00000000E+00  0.00000000E+00  0.00000000E+00
  0.00000000E+00  0.00000000E+00  0.00000000E+00
  0.00000000E+00  0.00000000E+00  0.00000000E+00
  0.00000000E+00  0.00000000E+00  0.00000000E+00
  0.00000000E+00  0.00000000E+00  0.00000000E+00
  0.00000000E+00  0.00000000E+00  0.00000000E+00
