POSCAR for slab defined by SURFACE card and Nslab and Vacuum_thickness_in_Angstrom in pn.in by Simphony
1.0
    4.996880    0.000000    0.000000
    0.000000    5.018807    0.000000
    0.000002    0.000003   73.197114
Hf    O     
    40    80
Cartesian
    1.338766    3.802713   10.670208       Hf
    1.338766    3.802713   15.873211       Hf
    1.338767    3.802713   21.076213       Hf
    1.338767    3.802714   26.279216       Hf
    1.338767    3.802714   31.482218       Hf
    1.338767    3.802714   36.685221       Hf
    1.338767    3.802714   41.888224       Hf
    1.338767    3.802714   47.091226       Hf
    1.338767    3.802715   52.294229       Hf
    1.338767    3.802715   57.497231       Hf
    1.338767    1.293309   12.924896       Hf
    1.338767    1.293310   18.127898       Hf
    1.338767    1.293310   23.330901       Hf
    1.338767    1.293310   28.533903       Hf
    1.338767    1.293310   33.736906       Hf
    1.338767    1.293310   38.939908       Hf
    1.338767    1.293311   44.142911       Hf
    1.338767    1.293311   49.345913       Hf
    1.338768    1.293311   54.548916       Hf
    1.338768    1.293311   59.751918       Hf
    3.658114    3.802713   13.271709       Hf
    3.658114    3.802713   18.474712       Hf
    3.658115    3.802713   23.677714       Hf
    3.658115    3.802714   28.880717       Hf
    3.658115    3.802714   34.083719       Hf
    3.658115    3.802714   39.286722       Hf
    3.658115    3.802714   44.489725       Hf
    3.658115    3.802714   49.692727       Hf
    3.658115    3.802715   54.895730       Hf
    3.658115    3.802715   60.098732       Hf
    3.658114    1.293310   15.526397       Hf
    3.658114    1.293310   20.729399       Hf
    3.658114    1.293310   25.932402       Hf
    3.658115    1.293310   31.135404       Hf
    3.658115    1.293310   36.338407       Hf
    3.658115    1.293311   41.541409       Hf
    3.658115    1.293311   46.744412       Hf
    3.658115    1.293311   51.947414       Hf
    3.658115    1.293311   57.150417       Hf
    3.658115    1.293311   62.353420       Hf
    0.361037    3.114698   12.412164        O
    0.361037    3.114698   17.615167        O
    0.361037    3.114699   22.818169        O
    0.361037    3.114699   28.021172        O
    0.361037    3.114699   33.224174        O
    0.361038    3.114699   38.427177        O
    0.361038    3.114699   43.630179        O
    0.361038    3.114700   48.833182        O
    0.361038    3.114700   54.036184        O
    0.361038    3.114700   59.239187        O
    0.361036    0.605294   11.182942        O
    0.361036    0.605294   16.385945        O
    0.361036    0.605294   21.588947        O
    0.361036    0.605295   26.791950        O
    0.361037    0.605295   31.994952        O
    0.361037    0.605295   37.197955        O
    0.361037    0.605295   42.400958        O
    0.361037    0.605295   47.603960        O
    0.361037    0.605296   52.806963        O
    0.361037    0.605296   58.009965        O
    2.295129    2.553080   14.321654        O
    2.295129    2.553080   19.524656        O
    2.295129    2.553080   24.727659        O
    2.295129    2.553080   29.930661        O
    2.295129    2.553080   35.133664        O
    2.295129    2.553081   40.336667        O
    2.295129    2.553081   45.539669        O
    2.295129    2.553081   50.742672        O
    2.295129    2.553081   55.945674        O
    2.295130    2.553081   61.148677        O
    2.295128    0.043676   14.476452        O
    2.295128    0.043676   19.679454        O
    2.295128    0.043676   24.882457        O
    2.295128    0.043677   30.085459        O
    2.295128    0.043677   35.288462        O
    2.295129    0.043677   40.491464        O
    2.295129    0.043677   45.694467        O
    2.295129    0.043677   50.897469        O
    2.295129    0.043678   56.100472        O
    2.295129    0.043678   61.303475        O
    2.701752    0.043676   11.874951        O
    2.701753    0.043676   17.077953        O
    2.701753    0.043676   22.280956        O
    2.701753    0.043677   27.483958        O
    2.701753    0.043677   32.686961        O
    2.701753    0.043677   37.889963        O
    2.701753    0.043677   43.092966        O
    2.701753    0.043677   48.295968        O
    2.701753    0.043678   53.498971        O
    2.701754    0.043678   58.701973        O
    2.701752    2.553079   11.720153        O
    2.701753    2.553080   16.923155        O
    2.701753    2.553080   22.126158        O
    2.701753    2.553080   27.329160        O
    2.701753    2.553080   32.532163        O
    2.701753    2.553080   37.735165        O
    2.701753    2.553081   42.938168        O
    2.701753    2.553081   48.141170        O
    2.701753    2.553081   53.344173        O
    2.701754    2.553081   58.547176        O
    4.635844    3.114698   15.013664        O
    4.635844    3.114698   20.216667        O
    4.635844    3.114698   25.419670        O
    4.635845    3.114699   30.622672        O
    4.635845    3.114699   35.825675        O
    4.635845    3.114699   41.028677        O
    4.635845    3.114699   46.231680        O
    4.635845    3.114699   51.434682        O
    4.635845    3.114700   56.637685        O
    4.635845    3.114700   61.840687        O
    4.635844    0.605294   13.784443        O
    4.635844    0.605295   18.987445        O
    4.635844    0.605295   24.190448        O
    4.635844    0.605295   29.393450        O
    4.635845    0.605295   34.596453        O
    4.635845    0.605296   39.799455        O
    4.635845    0.605296   45.002458        O
    4.635845    0.605296   50.205460        O
    4.635845    0.605296   55.408463        O
    4.635845    0.605296   60.611465        O
