POSCAR for slab defined by SURFACE card and Nslab and Vacuum_thickness_in_Angstrom in pn.in by Simphony
1.0
    4.954716    0.000000    0.000000
    0.000000    5.044581    0.000000
    0.000000    0.000000   72.839776
Hf    O     
    40    80
Cartesian
    1.331220    3.820443   10.673713       Hf
    1.331220    3.820443   15.840982       Hf
    1.331220    3.820443   21.008251       Hf
    1.331220    3.820443   26.175520       Hf
    1.331220    3.820443   31.342788       Hf
    1.331220    3.820443   36.510057       Hf
    1.331220    3.820443   41.677326       Hf
    1.331220    3.820443   46.844594       Hf
    1.331220    3.820443   52.011863       Hf
    1.331220    3.820443   57.179132       Hf
    1.331220    1.298153   12.908815       Hf
    1.331220    1.298153   18.076084       Hf
    1.331220    1.298153   23.243353       Hf
    1.331220    1.298153   28.410622       Hf
    1.331220    1.298153   33.577890       Hf
    1.331220    1.298153   38.745159       Hf
    1.331220    1.298153   43.912428       Hf
    1.331220    1.298153   49.079696       Hf
    1.331220    1.298153   54.246965       Hf
    1.331220    1.298153   59.414234       Hf
    3.623496    3.820443   13.257348       Hf
    3.623496    3.820443   18.424616       Hf
    3.623496    3.820443   23.591885       Hf
    3.623496    3.820443   28.759154       Hf
    3.623496    3.820443   33.926422       Hf
    3.623496    3.820443   39.093691       Hf
    3.623496    3.820443   44.260960       Hf
    3.623496    3.820443   49.428229       Hf
    3.623496    3.820443   54.595497       Hf
    3.623496    3.820443   59.762766       Hf
    3.623496    1.298153   15.492450       Hf
    3.623496    1.298153   20.659718       Hf
    3.623496    1.298153   25.826987       Hf
    3.623496    1.298153   30.994256       Hf
    3.623496    1.298153   36.161524       Hf
    3.623496    1.298153   41.328793       Hf
    3.623496    1.298153   46.496062       Hf
    3.623496    1.298153   51.663331       Hf
    3.623496    1.298153   56.830599       Hf
    3.623496    1.298153   61.997868       Hf
    0.364824    3.134264   12.406804        O
    0.364824    3.134264   17.574073        O
    0.364824    3.134264   22.741341        O
    0.364824    3.134264   27.908610        O
    0.364824    3.134264   33.075879        O
    0.364824    3.134264   38.243148        O
    0.364824    3.134264   43.410416        O
    0.364824    3.134264   48.577685        O
    0.364824    3.134264   53.744954        O
    0.364824    3.134264   58.912222        O
    0.364823    0.611973   11.175727        O
    0.364823    0.611973   16.342996        O
    0.364823    0.611973   21.510264        O
    0.364823    0.611973   26.677533        O
    0.364823    0.611973   31.844802        O
    0.364823    0.611973   37.012071        O
    0.364823    0.611973   42.179339        O
    0.364823    0.611973   47.346608        O
    0.364823    0.611973   52.513877        O
    0.364823    0.611973   57.681145        O
    2.265381    2.564418   14.308075        O
    2.265381    2.564418   19.475343        O
    2.265381    2.564418   24.642612        O
    2.265381    2.564418   29.809881        O
    2.265381    2.564418   34.977150        O
    2.265381    2.564418   40.144418        O
    2.265381    2.564418   45.311687        O
    2.265381    2.564418   50.478956        O
    2.265381    2.564418   55.646225        O
    2.265381    2.564418   60.813493        O
    2.265380    0.042127   14.441723        O
    2.265380    0.042127   19.608991        O
    2.265380    0.042127   24.776260        O
    2.265380    0.042127   29.943529        O
    2.265380    0.042127   35.110797        O
    2.265380    0.042127   40.278066        O
    2.265380    0.042127   45.445335        O
    2.265380    0.042127   50.612604        O
    2.265380    0.042127   55.779872        O
    2.265380    0.042127   60.947141        O
    2.689336    0.042127   11.858088        O
    2.689336    0.042127   17.025357        O
    2.689336    0.042127   22.192625        O
    2.689336    0.042127   27.359894        O
    2.689336    0.042127   32.527163        O
    2.689336    0.042127   37.694431        O
    2.689336    0.042127   42.861700        O
    2.689336    0.042127   48.028969        O
    2.689336    0.042127   53.196238        O
    2.689336    0.042127   58.363506        O
    2.689335    2.564418   11.724440        O
    2.689335    2.564418   16.891709        O
    2.689335    2.564418   22.058977        O
    2.689335    2.564418   27.226246        O
    2.689335    2.564418   32.393515        O
    2.689335    2.564418   37.560784        O
    2.689335    2.564418   42.728052        O
    2.689335    2.564418   47.895321        O
    2.689335    2.564418   53.062590        O
    2.689335    2.564418   58.229859        O
    4.589893    3.134264   14.990438        O
    4.589893    3.134264   20.157706        O
    4.589893    3.134264   25.324975        O
    4.589893    3.134264   30.492244        O
    4.589893    3.134264   35.659513        O
    4.589893    3.134264   40.826781        O
    4.589893    3.134264   45.994050        O
    4.589893    3.134264   51.161319        O
    4.589893    3.134264   56.328587        O
    4.589893    3.134264   61.495856        O
    4.589893    0.611973   13.759361        O
    4.589893    0.611973   18.926629        O
    4.589893    0.611973   24.093898        O
    4.589893    0.611973   29.261167        O
    4.589893    0.611973   34.428436        O
    4.589893    0.611973   39.595704        O
    4.589893    0.611973   44.762973        O
    4.589893    0.611973   49.930242        O
    4.589893    0.611973   55.097510        O
    4.589893    0.611973   60.264779        O
