Hf4 O8                                  
   1.00000000000000     
     5.0548113269000003    0.0000000000000000    0.0000000000000003
    -0.0000000000000003    4.9809473028960838    0.0000000000000003
     0.0000000000000000    0.0000000000000000    5.2716579935999999
  Hf              O             
     4     8
Direct
     0.2667653794317508    0.7586601071381432    0.0329888871506658
     0.2667656047383450    0.2586600884755479    0.4670110958349160
     0.7332346245862648    0.7586600971887569    0.5329888106438430
     0.7332343910890836    0.2586600985016538    0.9670110200051315
     0.0697711481698915    0.6192154416276242    0.3666151122508822
     0.0697712147899576    0.1192152189208124    0.1333852868635573
     0.4626281150826150    0.5091245205503243    0.7307481874567558
     0.4626281775146190    0.0091246227453874    0.7692515732001094
     0.5373717517363321    0.0091246442033963    0.2692516889794667
     0.5373719546032809    0.5091244994470420    0.2307483031310549
     0.9302289690272471    0.6192153869690866    0.8666149302069097
     0.9302286692306136    0.1192152742322267    0.6333851042767070
 
  0.00000000E+00  0.00000000E+00  0.00000000E+00
  0.00000000E+00  0.00000000E+00  0.00000000E+00
  0.00000000E+00  0.00000000E+00  0.00000000E+00
  0.00000000E+00  0.00000000E+00  0.00000000E+00
  0.00000000E+00  0.00000000E+00  0.00000000E+00
  0.00000000E+00  0.00000000E+00  0.00000000E+00
  0.00000000E+00  0.00000000E+00  0.00000000E+00
  0.00000000E+00  0.00000000E+00  0.00000000E+00
  0.00000000E+00  0.00000000E+00  0.00000000E+00
  0.00000000E+00  0.00000000E+00  0.00000000E+00
  0.00000000E+00  0.00000000E+00  0.00000000E+00
  0.00000000E+00  0.00000000E+00  0.00000000E+00
