HfO2 180deg domain superlattice 2:1, wall registry tau=0.50
   1.00000000000000
      4.9968800488597669    0.0000000121058044    0.0000001445341506
      0.0000000094452654    5.0188070423923037    0.0000001708411132
      0.0000003625600113    0.0000006139033179   15.6090075878679748
  Hf  O
  12  24
Direct
    0.2679203943091855  0.7576925154677233  0.0111094069821249
    0.2679204399210101  0.2576924912476420  0.1555572492599636
    0.7320796033559180  0.7576925088967347  0.1777760529783200
    0.7320795656368406  0.2576924970594833  0.3222238987333457
    0.2679203943091855  0.7576925154677233  0.3444427403154582
    0.2679204399210101  0.2576924912476420  0.4888905825932969
    0.7320796033559180  0.7576925088967347  0.5111093863116534
    0.7320795656368406  0.2576924970594833  0.6555572320666790
    0.2679203943091855  0.6238536191956183  0.8444427403154583
    0.2679204399210101  0.1238536434156997  0.9888905825932969
    0.7320796033559180  0.6238536257666070  0.6777760529783201
    0.7320795656368406  0.1238536376038583  0.8222238987333457
    0.0722524196573279  0.6206051924696698  0.1227088044377363
    0.0722522449186821  0.1206050774929280  0.0439580161928300
    0.4593122403862911  0.5087023764748286  0.2450413563252186
    0.4593121323595093  0.0087023482149107  0.2549585779496478
    0.5406878157711290  0.0087023773963931  0.0882919199718638
    0.5406878142191980  0.5087023470511516  0.0783746974939039
    0.9277476681005912  0.6206051262286256  0.2893754032034679
    0.9277476613643174  0.1206051419999113  0.2106246164715774
    0.0722524196573279  0.6206051924696698  0.4560421377710696
    0.0722522449186821  0.1206050774929280  0.3772913495261633
    0.4593122403862911  0.5087023764748286  0.5783746896585519
    0.4593121323595093  0.0087023482149107  0.5882919112829811
    0.5406878157711290  0.0087023773963931  0.4216252533051971
    0.5406878142191980  0.5087023470511516  0.4117080308272372
    0.9277476681005912  0.6206051262286256  0.6227087365368013
    0.9277476613643174  0.1206051419999113  0.5439579498049107
    0.0722524196573279  0.7609409421936718  0.9560421377710696
    0.0722522449186821  0.2609410571704137  0.8772913495261633
    0.4593122403862911  0.8728437581885130  0.7450413563252186
    0.4593121323595093  0.3728437864484309  0.7549585779496478
    0.5406878157711290  0.3728437572669485  0.9216252533051971
    0.5406878142191980  0.8728437876121901  0.9117080308272373
    0.9277476681005912  0.7609410084347160  0.7893754032034680
    0.9277476613643174  0.2609409926634303  0.7106246164715774
