HfO2 180deg domain superlattice 4:2, wall registry tau=0.50
   1.00000000000000
      4.9968800488597669    0.0000000121058044    0.0000001445341506
      0.0000000094452654    5.0188070423923037    0.0000001708411132
      0.0000007251200226    0.0000012278066358   31.2180151757359496
  Hf  O
  24  48
Direct
    0.2679203943091855  0.7576925154677233  0.0055547034910625
    0.2679204399210101  0.2576924912476420  0.0777786246299818
    0.7320796033559180  0.7576925088967347  0.0888880264891600
    0.7320795656368406  0.2576924970594833  0.1611119493666729
    0.2679203943091855  0.7576925154677233  0.1722213701577291
    0.2679204399210101  0.2576924912476420  0.2444452912966485
    0.7320796033559180  0.7576925088967347  0.2555546931558267
    0.7320795656368406  0.2576924970594833  0.3277786160333395
    0.2679203943091855  0.7576925154677233  0.3388880368243958
    0.2679204399210101  0.2576924912476420  0.4111119579633151
    0.7320796033559180  0.7576925088967347  0.4222213598224934
    0.7320795656368406  0.2576924970594833  0.4944452827000062
    0.2679203943091855  0.7576925154677233  0.5055547034910625
    0.2679204399210101  0.2576924912476420  0.5777786246299818
    0.7320796033559180  0.7576925088967347  0.5888880264891601
    0.7320795656368406  0.2576924970594833  0.6611119493666728
    0.2679203943091855  0.6238536191956183  0.7555547034910625
    0.2679204399210101  0.1238536434156997  0.8277786246299819
    0.7320796033559180  0.6238536257666070  0.6722213598224934
    0.7320795656368406  0.1238536376038583  0.7444452827000062
    0.2679203943091855  0.6238536191956183  0.9222213701577292
    0.2679204399210101  0.1238536434156997  0.9944452912966485
    0.7320796033559180  0.6238536257666070  0.8388880264891601
    0.7320795656368406  0.1238536376038583  0.9111119493666728
    0.0722524196573279  0.6206051924696698  0.0613544022188681
    0.0722522449186821  0.1206050774929280  0.0219790080964150
    0.4593122403862911  0.5087023764748286  0.1225206781626093
    0.4593121323595093  0.0087023482149107  0.1274792889748239
    0.5406878157711290  0.0087023773963931  0.0441459599859319
    0.5406878142191980  0.5087023470511516  0.0391873487469519
    0.9277476681005912  0.6206051262286256  0.1446877016017339
    0.9277476613643174  0.1206051419999113  0.1053123082357887
    0.0722524196573279  0.6206051924696698  0.2280210688855348
    0.0722522449186821  0.1206050774929280  0.1886456747630817
    0.4593122403862911  0.5087023764748286  0.2891873448292759
    0.4593121323595093  0.0087023482149107  0.2941459556414905
    0.5406878157711290  0.0087023773963931  0.2108126266525986
    0.5406878142191980  0.5087023470511516  0.2058540154136186
    0.9277476681005912  0.6206051262286256  0.3113543682684006
    0.9277476613643174  0.1206051419999113  0.2719789749024554
    0.0722524196573279  0.6206051924696698  0.3946877355522014
    0.0722522449186821  0.1206050774929280  0.3553123414297483
    0.4593122403862911  0.5087023764748286  0.4558540114959426
    0.4593121323595093  0.0087023482149107  0.4608126223081572
    0.5406878157711290  0.0087023773963931  0.3774792933192652
    0.5406878142191980  0.5087023470511516  0.3725206820802853
    0.9277476681005912  0.6206051262286256  0.4780210349350673
    0.9277476613643174  0.1206051419999113  0.4386456415691220
    0.0722524196573279  0.6206051924696698  0.5613544022188681
    0.0722522449186821  0.1206050774929280  0.5219790080964150
    0.4593122403862911  0.5087023764748286  0.6225206781626093
    0.4593121323595093  0.0087023482149107  0.6274792889748239
    0.5406878157711290  0.0087023773963931  0.5441459599859318
    0.5406878142191980  0.5087023470511516  0.5391873487469520
    0.9277476681005912  0.6206051262286256  0.6446877016017339
    0.9277476613643174  0.1206051419999113  0.6053123082357886
    0.0722524196573279  0.7609409421936718  0.8113544022188681
    0.0722522449186821  0.2609410571704137  0.7719790080964151
    0.4593122403862911  0.8728437581885130  0.7058540114959427
    0.4593121323595093  0.3728437864484309  0.7108126223081572
    0.5406878157711290  0.3728437572669485  0.7941459599859320
    0.5406878142191980  0.8728437876121901  0.7891873487469520
    0.9277476681005912  0.7609410084347160  0.7280210349350673
    0.9277476613643174  0.2609409926634303  0.6886456415691220
    0.0722524196573279  0.7609409421936718  0.9780210688855348
    0.0722522449186821  0.2609410571704137  0.9386456747630817
    0.4593122403862911  0.8728437581885130  0.8725206781626094
    0.4593121323595093  0.3728437864484309  0.8774792889748239
    0.5406878157711290  0.3728437572669485  0.9608126266525986
    0.5406878142191980  0.8728437876121901  0.9558540154136187
    0.9277476681005912  0.7609410084347160  0.8946877016017339
    0.9277476613643174  0.2609409926634303  0.8553123082357886
